
  12    4
  10   10   10   10

   0   0   0   0   0   2 2 4 
   1  10  10  10  10   2 6 3 
   9  10  10  10  10   1 5 
  10  10  10  10  10   1 5 
  10  10  10  10  10   2 8 7 
   8  10  10  10  10   1 7 
   3  10  10  10  10   2 10 9 
   5  10  10  10  10   1 9 
   8  10  10  10  10   1 11 
   5  10  10  10  10   1 11 
   7  10  10  10  10   1 12
   0   0   0   0   0   0 
